NAME : B-n78-k10.722708.tour
COMMENT : Length = 722708
COMMENT : Found by LKH [Keld Helsgaun] Sun Dec 17 19:33:56 2017
TYPE : TOUR
DIMENSION : 87
TOUR_SECTION
1
48
76
8
77
33
74
32
4
55
21
86
41
54
69
42
15
37
5
60
79
28
3
43
17
19
26
11
84
64
50
6
31
71
30
82
59
39
57
9
23
72
16
13
35
83
18
73
70
68
44
22
53
25
2
87
63
51
62
40
75
29
80
66
38
58
52
46
47
81
78
24
45
27
12
65
85
67
61
7
10
20
49
14
34
56
36
-1
EOF
